    &control
    calculation='scf'
    restart_mode='restart'
    prefix='ben2'
    !pseudo_dir='/home/yam13524/espresso/pseudo'
    outdir='./tmp/'
    iprint=1
    disk_io = 'default'
    verbosity = 'high'
    /
    &SYSTEM
       ntyp             = 2
       nat              = 24
       ibrav            = 0
       ecutwfc=60
   ecutrho=600
   nosym=.true.
/
&electrons
   conv_thr=1d-8
/
ATOMIC_SPECIES
C 12.011 C.pbe-n-kjpaw_psl.1.0.0.UPF
H 1.008  H.pbe-kjpaw_psl.1.0.0.UPF

K_POINTS {automatic}
1 1 1 0 0 0

CELL_PARAMETERS angstrom
15.00000000000000 0.00000000000000 0.00000000000000
0.00000000000000 15.00000000000000 0.00000000000000
0.00000000000000 0.00000000000000 15.00000000000000

ATOMIC_POSITIONS angstrom
C 8.8900000000 7.5000000000 7.5000000000
C 8.2000000000 6.3000000000 7.5000000000
C 6.8000000000 6.3000000000 7.5000000000
C 6.1100000000 7.5000000000 7.5000000000
C 6.8000000000 8.7000000000 7.5000000000
C 8.2000000000 8.7000000000 7.5000000000
H 9.8900000000 7.5000000000 7.5000000000
H 8.7000000000 5.4300000000 7.5000000000
H 6.3000000000 5.4300000000 7.5000000000
H 5.1100000000 7.5000000000 7.5000000000
H 6.3000000000 9.5700000000 7.5000000000
H 8.7000000000 9.5700000000 7.5000000000
C 11.7000000000 8.2000000000 10.5d0
C 11.7000000000 6.8000000000 10.5d0
C 10.5000000000 6.1100000000 10.5d0
C 9.3000000000 6.8000000000 10.5d0
C 9.3000000000 8.2000000000 10.5d0
C 10.5000000000 8.8900000000 10.5d0
H 12.5700000000 8.7000000000 10.5d0
H 12.5700000000 6.3000000000 10.5d0
H 10.5000000000 5.1100000000 10.5d0
H 8.4300000000 6.3100000000 10.5d0
H 8.4300000000 8.7000000000 10.5d0
H 10.5000000000 9.8900000000 10.5d0
