&control
calculation='scf'
restart_mode='restart'
prefix='ben2_h6'
tefield=.true. 
dipfield =.true.
pseudo_dir='/home/yam13524/espresso/pseudo'  
outdir='./out' 
iprint=1
disk_io = 'default'
verbosity = 'high' 
/
&SYSTEM
   ntyp             = 2
   nat              = 24
   ibrav            = 0
ecutwfc=60  
ecutrho=300  
nosym=.true. 
edir=1 
emaxpos = 0.9 
eopreg = 0.1 
eamp = 0.00000e+00 
ecutwfc=60  
ecutrho=300  
nosym=.true. 
edir=2 
emaxpos = 0.9 
eopreg = 0.1 
eamp = 0.00000e+00 
ecutwfc=60  
ecutrho=300  
nosym=.true. 
edir=3 
emaxpos = 0.9 
eopreg = 0.1 
eamp = 0.00000e+00 
/
&electrons
/
ATOMIC_SPECIES
C 12.011 C.pbe-hgh.UPF
H 1.008  H.pbe-hgh.UPF

K_POINTS {automatic}
1 1 1 0 0 0 

CELL_PARAMETERS angstrom
15.00000000000000 0.00000000000000 0.00000000000000
0.00000000000000 15.00000000000000 0.00000000000000
0.00000000000000 0.00000000000000 25.00000000000000

ATOMIC_POSITIONS angstrom
C 8.8900000000 7.5000000000 12.5000000000 
C 8.2000000000 6.3000000000 12.5000000000 
C 6.8000000000 6.3000000000 12.5000000000 
C 6.1100000000 7.5000000000 12.5000000000 
C 6.8000000000 8.7000000000 12.5000000000 
C 8.2000000000 8.7000000000 12.5000000000 
H 9.8900000000 7.5000000000 12.5000000000 
H 8.7000000000 5.4300000000 12.5000000000 
H 6.3000000000 5.4300000000 12.5000000000 
H 5.1100000000 7.5000000000 12.5000000000 
H 6.3000000000 9.5700000000 12.5000000000 
H 8.7000000000 9.5700000000 12.5000000000 
C 10.7000000000 8.2000000000 18.5000000000 
C 10.7000000000 6.8000000000 18.5000000000 
C 9.5000000000 6.1100000000 18.5000000000 
C 8.3000000000 6.8000000000 18.5000000000 
C 8.3000000000 8.2000000000 18.5000000000 
C 9.5000000000 8.8900000000 18.5000000000 
H 11.5700000000 8.7000000000 18.5000000000 
H 11.5700000000 6.3000000000 18.5000000000 
H 9.5000000000 5.1100000000 18.5000000000 
H 7.4300000000 6.3100000000 18.5000000000 
H 7.4300000000 8.7000000000 18.5000000000 
H 9.5000000000 9.8900000000 18.5000000000 
